#######################



#######################
Set parameter TimeLimit to value 300
Set parameter SoftMemLimit to value 125
Set parameter MIPFocus to value 2
Set parameter LogFile to value 1003-MIPFocus2-Presolve1-TimeLimit300-k16x240-2.log
Set parameter Presolve to value 1
Set parameter Seed to value 2
Using license file /opt/gurobi/gurobi.lic

Gurobi Optimizer version 10.0.3 build v10.0.3rc0 (linux64)
Copyright (c) 2023, Gurobi Optimization, LLC

Read MPS format model from file /miplib2010/k16x240.mps.bz2
Reading time = 0.00 seconds
k16x240: 256 rows, 480 columns, 960 nonzeros

CPU model: Intel(R) Xeon(R) E-2388G CPU @ 3.20GHz, instruction set [SSE2|AVX|AVX2|AVX512]
Thread count: 8 physical cores, 16 logical processors, using up to 16 threads

Optimize a model with 256 rows, 480 columns and 960 nonzeros
Model fingerprint: 0x4e80885f
Variable types: 240 continuous, 240 integer (240 binary)
Coefficient statistics:
  Matrix range     [1e+00, 1e+03]
  Objective range  [1e+00, 1e+03]
  Bounds range     [1e+00, 1e+03]
  RHS range        [4e+00, 4e+02]
Found heuristic solution: objective 20929.000000
Presolve time: 0.00s
Presolved: 256 rows, 480 columns, 960 nonzeros
Variable types: 240 continuous, 240 integer (240 binary)

Root relaxation: objective 2.769838e+03, 51 iterations, 0.00 seconds (0.00 work units)

    Nodes    |    Current Node    |     Objective Bounds      |     Work
 Expl Unexpl |  Obj  Depth IntInf | Incumbent    BestBd   Gap | It/Node Time

     0     0 2769.83800    0   14 20929.0000 2769.83800  86.8%     -    0s
H    0     0                    11359.000000 2769.83800  75.6%     -    0s
H    0     0                    11195.000000 2769.83800  75.3%     -    0s
H    0     0                    11074.000000 8116.87580  26.7%     -    0s
     0     0 8116.87580    0   26 11074.0000 8116.87580  26.7%     -    0s
H    0     0                    10916.000000 8116.87580  25.6%     -    0s
H    0     0                    10806.000000 8588.30479  20.5%     -    0s
     0     0 8588.30479    0   25 10806.0000 8588.30479  20.5%     -    0s
     0     0 8613.92228    0   22 10806.0000 8613.92228  20.3%     -    0s
H    0     0                    10779.000000 8711.89120  19.2%     -    0s
     0     0 8711.89120    0   16 10779.0000 8711.89120  19.2%     -    0s
H    0     0                    10717.000000 8711.89120  18.7%     -    0s
H    0     0                    10711.000000 8842.09404  17.4%     -    0s
     0     0 8842.09404    0   27 10711.0000 8842.09404  17.4%     -    0s
     0     0 8855.03324    0   36 10711.0000 8855.03324  17.3%     -    0s
     0     0 8857.29435    0   38 10711.0000 8857.29435  17.3%     -    0s
     0     0 9007.17685    0   45 10711.0000 9007.17685  15.9%     -    0s
     0     0 9010.21730    0   39 10711.0000 9010.21730  15.9%     -    0s
     0     0 9076.75635    0   35 10711.0000 9076.75635  15.3%     -    0s
     0     0 9090.72947    0   32 10711.0000 9090.72947  15.1%     -    0s
     0     0 9093.99232    0   41 10711.0000 9093.99232  15.1%     -    0s
     0     0 9120.09482    0   31 10711.0000 9120.09482  14.9%     -    0s
     0     0 9130.34348    0   32 10711.0000 9130.34348  14.8%     -    0s
     0     0 9146.45733    0   36 10711.0000 9146.45733  14.6%     -    0s
     0     0 9146.45733    0   36 10711.0000 9146.45733  14.6%     -    0s
     0     2 9146.45733    0   36 10711.0000 9146.45733  14.6%     -    0s
H   40    48                    10681.000000 9249.05107  13.4%  58.5    0s
H   42    48                    10678.000000 9249.05107  13.4%  58.1    0s
H  749   538                    10674.000000 9336.51271  12.5%  24.4    0s
 27977 11440 10549.0041   27   11 10674.0000 10017.1026  6.15%  24.7    5s
 75438 19741 10326.4820   23   18 10674.0000 10222.8753  4.23%  25.1   10s
 117782 17729 10639.6336   33   14 10674.0000 10361.1752  2.93%  25.1   15s

Cutting planes:
  Learned: 1
  Gomory: 3
  Lift-and-project: 9
  Cover: 107
  Implied bound: 34
  MIR: 201
  Flow cover: 273
  Flow path: 27
  Inf proof: 7
  Zero half: 10
  Network: 42
  Relax-and-lift: 5

Explored 162453 nodes (3909195 simplex iterations) in 19.52 seconds (23.74 work units)
Thread count was 16 (of 16 available processors)

Solution count 10: 10674 10678 10681 ... 11195

Optimal solution found (tolerance 1.00e-04)
Best objective 1.067400000000e+04, best bound 1.067400000000e+04, gap 0.0000%
